1063.07 0
0 62 22 61 28 2 0
0 9 25 55 18 50 3 0
0 33 64 42 41 23 63 0
0 72 39 31 10 58 0
0 29 5 37 15 57 13 27 0
0 38 65 66 59 0
0 45 34 46 67 0
0 26 7 8 19 54 52 0
0 74 21 47 48 30 0
0 16 44 32 40 0
0 73 1 43 56 24 49 0
0 53 11 14 35 0
0 4 20 70 60 71 69 36 0
0 75 68 6 51 17 12 0
